job_count = 10 ;
duration = [|17, 14, 3|29, 15, 5|5, 6, 2|19, 18, 6|29, 19, 7|5, 6, 7|11, 8, 3|5, 6, 4|25, 15, 3|13, 2, 7|] ;
machine_count = 3 ;
cost = [|13, 33, 48|10, 25, 56|12, 21, 48|12, 29, 50|17, 20, 45|18, 26, 37|14, 33, 46|18, 36, 48|10, 30, 45|16, 31, 52|] ;
deadline = [22, 22, 22, 22, 22, 22, 22, 22, 22, 22] ;
release = [0, 0, 0, 0, 0, 0, 0, 0, 0, 0] ;
resource = [|7, 7, 7|4, 4, 4|5, 5, 5|8, 8, 8|9, 9, 9|3, 3, 3|7, 7, 7|8, 8, 8|3, 3, 3|6, 6, 6|] ;
capacities = [10, 10, 10] ;
